 ! --------------------------------------------------- CP Optimizer 22.1.1.0 --
 ! Satisfiability problem - 60625 variables, 745452 constraints
 ! Presolve      : 37500 extractables eliminated
 ! TimeLimit            = 3600
 ! Workers              = 1
 ! Initial process time : 6.89s (6.87s extraction + 0.03s propagation)
 !  . Log search space  : 627290.2 (before), 627290.2 (after)
 !  . Memory usage      : 460.1 MB (before), 460.1 MB (after)
 ! Using sequential search.
 ! ----------------------------------------------------------------------------
 !               Branches  Non-fixed            Branch decision
                     1099      59856        F          presenceOf(copy_bus_parking:7_0)
                     2282      58562        F          presenceOf(copy_trips:20_0)
                     3000      57174                   presenceOf(copy_lane_parking:3_78)
                     4000      39330                   presenceOf(copy_bus_parking:30_230)
                     5000      26657                   presenceOf(copy_lane_parking:7_157)
                     6000      26032                   presenceOf(copy_lane_parking:0_32)
                     7000      20698            256 != endOf(start_parking:44)
                     8000      54617                   presenceOf(copy_lane_parking:2_109)
                     9000      20525                   presenceOf(copy_lane_parking:2_21)
                    10000      38572                   presenceOf(copy_lane_parking:8_209)
                    11000      26657                   presenceOf(copy_lane_parking:6_46)
                    12000      38581                   presenceOf(copy_lane_parking:2_285)
                    13000      26070                  !presenceOf(copy_bus_parking:41_46)
                    14000      20682        F          presenceOf(copy_trips:43_269)
                    15000      20682                  !presenceOf(copy_bus_parking:35_369)
                    16000      21004                  !presenceOf(copy_bus_parking:22_252)
                    17000      20694                   presenceOf(copy_lane_parking:8_370)
                    18000      38599                   presenceOf(copy_lane_parking:3_300)
                    19000      43095            256 != endOf(start_parking:42)
                    20000      42147                  !presenceOf(copy_trips:47_33)
 ! Time = 51.58s, Average fail depth = 450, Memory usage = 1.7 GB
 !               Branches  Non-fixed            Branch decision
                    21000      38587                  !presenceOf(copy_trips:15_371)
                    22000      38587                   presenceOf(copy_lane_parking:3_329)
                    23000      38590                   presenceOf(copy_bus_parking:44_77)
                    24000      43230                  !presenceOf(copy_trips:27_32)
                    25000      43233        F          presenceOf(copy_trips:3_32)
                    26000      43227        F          presenceOf(copy_trips:6_32)
                    27000      42781        F          presenceOf(copy_bus_parking:32_18)
                    28000      42781                   presenceOf(copy_lane_parking:0_205)
                    29000      43065        F          presenceOf(copy_trips:38_30)
                    30000      20679        F          presenceOf(copy_bus_parking:41_251)
                    31000      20679                  !presenceOf(copy_bus_parking:32_31)
                    32000      42325            256  = endOf(start_parking:41)
                    33000      57894                   presenceOf(copy_lane_parking:2_234)
                    34000      34876                  !presenceOf(copy_trips:44_6)
                    35000      34913                   presenceOf(copy_lane_parking:3_167)
                    36000      42782        F          presenceOf(copy_trips:25_32)
                    37000      25835        F          presenceOf(copy_bus_parking:25_40)
                    38000      25835                   presenceOf(copy_bus_parking:36_228)
                    39000      25779        F          presenceOf(copy_trips:24_38)
                    40000      25779                  !presenceOf(copy_trips:26_40)
 ! Time = 93.64s, Average fail depth = 462, Memory usage = 1.7 GB
 !               Branches  Non-fixed            Branch decision
                    41000      25779                  !presenceOf(copy_bus_parking:23_37)
                    42000      25779                  !presenceOf(copy_trips:34_371)
                    43000      38593                  !presenceOf(copy_trips:28_371)
                    44000      38593                  !presenceOf(copy_trips:13_371)
                    45000      38593                  !presenceOf(copy_trips:25_371)
                    46000      38596                  !presenceOf(copy_trips:23_371)
                    47000      38593                  !presenceOf(copy_trips:12_371)
                    48000      38593                  !presenceOf(copy_trips:23_371)
                    49000      38593                  !presenceOf(copy_trips:31_371)
                    50000      38593                  !presenceOf(copy_trips:5_371)
                    51000      38593                  !presenceOf(copy_trips:38_371)
                    52000      38596                  !presenceOf(copy_trips:30_371)
                    53000      38596                  !presenceOf(copy_trips:20_371)
                    54000      38602                  !presenceOf(copy_trips:3_371)
                    55000      38596                   presenceOf(copy_lane_parking:2_113)
                    56000      43435                  !presenceOf(copy_bus_parking:42_68)
                    57000      32915        F          presenceOf(copy_bus_parking:47_30)
                    58000      32918                   presenceOf(copy_lane_parking:3_314)
                    59000      38605                  !presenceOf(copy_trips:35_373)
                    60000      38602                  !presenceOf(copy_trips:47_373)
 ! Time = 120.70s, Average fail depth = 483, Memory usage = 1.7 GB
 !               Branches  Non-fixed            Branch decision
                    61000      38605                  !presenceOf(copy_trips:18_373)
                    62000      26196                  !presenceOf(copy_bus_parking:40_38)
                    63000      26184        F          presenceOf(copy_bus_parking:31_28)
                    64000      37059        F         !presenceOf(copy_trips:4_3)
                    65000      37154                  !presenceOf(copy_trips:11_0)
                    66000      37059                  !presenceOf(copy_trips:18_1)
                    67000      37059                   presenceOf(copy_lane_parking:8_4)
                    68000      49383                   presenceOf(copy_lane_parking:3_150)
                    69000      38602            on charge:5_17
                    70000      38593                   presenceOf(copy_trips:13_371)
                    71000      38593                   presenceOf(copy_lane_parking:6_92)
                    72000      50951                  !presenceOf(copy_trips:14_349)
                    73000      38590                  !presenceOf(copy_trips:8_373)
                    74000      20691                   presenceOf(copy_trips:31_253)
                    75000      20688                  !presenceOf(copy_trips:45_373)
                    76000      20694                   presenceOf(copy_trips:7_253)
                    77000      20694                   presenceOf(copy_lane_parking:8_289)
                    78000      42609                   presenceOf(copy_bus_parking:34_271)
                    79000      38596                   presenceOf(copy_lane_parking:6_297)
                    80000      25604                  !presenceOf(copy_bus_parking:6_40)
 ! Time = 164.74s, Average fail depth = 484, Memory usage = 1.7 GB
 !               Branches  Non-fixed            Branch decision
                    81000      25604                  !presenceOf(copy_bus_parking:24_40)
                    82000      25604                  !presenceOf(copy_bus_parking:6_40)
                    83000      25607                   presenceOf(copy_bus_parking:5_286)
                    84000      38578                   presenceOf(copy_bus_parking:7_244)
                    85000      20680                   presenceOf(copy_trips:33_179)
                    86000      30290                   presenceOf(copy_bus_parking:43_333)
                    87000      20677                   presenceOf(copy_trips:35_77)
                    88000      25642                   presenceOf(copy_trips:13_6)
                    89000      26196        F          presenceOf(copy_bus_parking:44_38)
                    90000      25747                   presenceOf(copy_lane_parking:5_144)
                    91000      38599                  !presenceOf(copy_bus_parking:19_370)
                    92000      38599        F          presenceOf(copy_trips:36_371)
                    93000      38596        F          presenceOf(copy_trips:25_371)
                    94000      38599        F          presenceOf(copy_trips:27_61)
                    95000      40929                   presenceOf(copy_trips:17_229)
                    96000      20688                   presenceOf(copy_bus_parking:12_342)
                    97000      38590                   presenceOf(copy_trips:28_370)
                    98000      38590                  !presenceOf(copy_trips:49_371)
                    99000      38590                  !presenceOf(copy_trips:25_371)
                     100k      38590        F          presenceOf(copy_trips:25_370)
 ! Time = 204.35s, Average fail depth = 488, Memory usage = 1.7 GB
 !               Branches  Non-fixed            Branch decision
                     101k      38596                  !presenceOf(copy_trips:44_371)
                     102k      38596        F          presenceOf(copy_trips:16_370)
                     103k      38596                  !presenceOf(copy_trips:48_371)
                     104k      38596        F          presenceOf(copy_trips:46_370)
                     105k      38596                  !presenceOf(copy_trips:13_371)
                     106k      38602        F          presenceOf(copy_trips:32_370)
                     107k      38599        F          presenceOf(copy_trips:30_373)
                     108k      38599        F          presenceOf(copy_trips:30_373)
                     109k      38599                   presenceOf(copy_lane_parking:6_108)
                     110k      38584                   presenceOf(copy_lane_parking:3_310)
                     111k      37538                   presenceOf(copy_bus_parking:40_4)
                     112k      37538        F          presenceOf(copy_bus_parking:14_1)
                     113k      37538        F          presenceOf(copy_bus_parking:28_1)
                     114k      37538                   presenceOf(copy_trips:41_371)
                     115k      20827                  !presenceOf(copy_bus_parking:30_269)
                     116k      20677                   presenceOf(copy_lane_parking:2_65)
                     117k      38578                  !presenceOf(copy_bus_parking:5_373)
                     118k      26256                  !presenceOf(copy_trips:24_37)
                     119k      26256                  !presenceOf(copy_trips:23_2)
                     120k      50203                   presenceOf(copy_lane_parking:0_185)
 ! Time = 239.62s, Average fail depth = 488, Memory usage = 1.7 GB
 !               Branches  Non-fixed            Branch decision
                     121k      20685                   presenceOf(copy_trips:28_253)
                     122k      20685        F          presenceOf(copy_trips:38_0)
                     123k      32695                  !presenceOf(copy_trips:31_3)
                     124k      35949        F          presenceOf(copy_trips:1_3)
                     125k      35949        F          presenceOf(copy_trips:1_3)
                     126k      35949                   presenceOf(copy_lane_parking:8_44)
                     127k      38593            256  = endOf(start_parking:44)
                     128k      20692        F          presenceOf(copy_trips:32_251)
                     129k      20689        F          presenceOf(copy_trips:7_251)
                     130k      20689        F          presenceOf(copy_trips:7_251)
                     131k      20689        F          presenceOf(copy_trips:21_251)
                     132k      20689        F          presenceOf(copy_trips:21_251)
                     133k      20689        F          presenceOf(copy_trips:16_251)
                     134k      20689        F          presenceOf(copy_trips:21_251)
                     135k      20689        F          presenceOf(copy_trips:49_251)
                     136k      20689        F          presenceOf(copy_trips:16_251)
                     137k      20689        F          presenceOf(copy_trips:7_251)
                     138k      20689        F          presenceOf(copy_trips:21_251)
                     139k      20689        F          presenceOf(copy_trips:1_251)
                     140k      20689        F          presenceOf(copy_trips:32_251)
 ! Time = 259.00s, Average fail depth = 505, Memory usage = 1.7 GB
 !               Branches  Non-fixed            Branch decision
                     141k      20689                   presenceOf(copy_lane_parking:2_230)
                     142k      38587        F          presenceOf(copy_trips:25_72)
                     143k      41312                   presenceOf(copy_lane_parking:1_339)
                     144k      55335                   presenceOf(copy_lane_parking:3_310)
                     145k      20680                   presenceOf(copy_lane_parking:4_363)
                     146k      20689        F          presenceOf(copy_bus_parking:49_251)
                     147k      20689        F          presenceOf(copy_bus_parking:4_251)
                     148k      20689        F          presenceOf(copy_bus_parking:9_251)
                     149k      20689                   presenceOf(copy_lane_parking:7_202)
                     150k      20830                   presenceOf(copy_lane_parking:7_187)
                     151k      20678                   presenceOf(copy_lane_parking:5_80)
                     152k      43065                   presenceOf(copy_bus_parking:7_32)
                     153k      20686                  !presenceOf(copy_bus_parking:1_251)
                     154k      20683        F         !presenceOf(copy_trips:21_373)
                     155k      38590                   presenceOf(copy_trips:45_371)
                     156k      38590        F          presenceOf(copy_trips:47_371)
                     157k      38590        F         !presenceOf(copy_trips:21_373)
                     158k      20690        F          presenceOf(copy_trips:3_251)
                     159k      20687                   presenceOf(copy_trips:4_371)
                     160k      38578                   presenceOf(copy_lane_parking:6_262)
 ! Time = 294.62s, Average fail depth = 506, Memory usage = 1.7 GB
 !               Branches  Non-fixed            Branch decision
                     161k      38602            on charge:16_28
                     162k      42305                   presenceOf(copy_lane_parking:8_202)
                     163k      38590                   presenceOf(copy_trips:2_316)
                     164k      38593        F          presenceOf(copy_bus_parking:16_371)
                     165k      38590        F          presenceOf(copy_bus_parking:24_371)
                     166k      38587        F          presenceOf(copy_bus_parking:26_371)
                     167k      38587        F          presenceOf(copy_bus_parking:32_371)
                     168k      38587        F          presenceOf(copy_bus_parking:31_371)
                     169k      38596        F          presenceOf(copy_bus_parking:27_371)
                     170k      38596        F         !presenceOf(copy_trips:46_373)
                     171k      38587        F         !presenceOf(copy_trips:46_373)
                     172k      38587        F          presenceOf(copy_bus_parking:21_371)
                     173k      38587        F          presenceOf(copy_bus_parking:9_371)
                     174k      38590        F          presenceOf(copy_bus_parking:36_371)
                     175k      38587        F          presenceOf(copy_bus_parking:24_371)
                     176k      38590        F          presenceOf(copy_trips:7_93)
                     177k      41936        F          presenceOf(copy_trips:2_111)
                     178k      25973            on charge:3_191
                     179k      16440                  !presenceOf(copy_trips:12_343)
                     180k       1290                   presenceOf(copy_lane_parking:1_346)
 ! Time = 324.07s, Average fail depth = 505, Memory usage = 1.8 GB
 !               Branches  Non-fixed            Branch decision
 *                   180k  324.19s                   -
 ! ----------------------------------------------------------------------------
 ! Search completed, 1 solution found.
 ! ----------------------------------------------------------------------------
 ! Number of branches     : 180245
 ! Number of fails        : 64569
 ! Total memory usage     : 1.9 GB (1.9 GB CP Optimizer + 0.0 GB Concert)
 ! Time spent in solve    : 324.21s (317.35s engine + 6.87s extraction)
 ! Search speed (br. / s) : 568.0
 ! ----------------------------------------------------------------------------
